(set-logic ALL)
(declare-fun i1 () Int)
(declare-fun it1238 () Int)
(declare-fun it1239 () Int)
(declare-fun i2 () Int)
(declare-fun i3 () Int)
(declare-fun it1240 () Int)
(declare-fun i4 () Int)
(declare-fun it1241 () Int)
(declare-fun it1242 () Int)
(declare-fun i5 () Int)
(declare-fun i6 () Int)
(declare-fun it1243 () Int)
(declare-fun i7 () Int)
(declare-fun it1244 () Int)
(declare-fun it1245 () Int)
(declare-fun it1246 () Int)
(declare-fun it1247 () Int)
(declare-fun it1248 () Int)
(declare-fun it1249 () Int)
(declare-fun it1250 () Int)
(declare-fun it1251 () Int)
(declare-fun it1252 () Int)
(declare-fun it1253 () Int)
(declare-fun it1254 () Int)
(declare-fun it1255 () Int)
(declare-fun it1256 () Int)
(declare-fun it1257 () Int)
(declare-fun it1258 () Int)
(declare-fun it1259 () Int)
(declare-fun it1260 () Int)
(declare-fun it1261 () Int)
(declare-fun it1262 () Int)
(declare-fun it1263 () Int)
(declare-fun it1264 () Int)
(declare-fun it1265 () Int)
(declare-fun it1266 () Int)
(declare-fun it1267 () Int)
(declare-fun it1268 () Int)
(declare-fun it1269 () Int)
(declare-fun it1270 () Int)
(declare-fun it1271 () Int)
(declare-fun it1272 () Int)
(declare-fun it1273 () Int)
(declare-fun it1274 () Int)
(declare-fun it1275 () Int)
(declare-fun it1276 () Int)
(declare-fun it1277 () Int)
(declare-fun it1278 () Int)
(declare-fun it1279 () Int)
(declare-fun it1280 () Int)
(declare-fun it1281 () Int)
(declare-fun it1282 () Int)
(declare-fun it1283 () Int)
(declare-fun it1284 () Int)
(declare-fun it1285 () Int)
(declare-fun it1286 () Int)
(declare-fun it1287 () Int)
(declare-fun it1288 () Int)
(declare-fun it1289 () Int)
(declare-fun it1290 () Int)
(declare-fun it1291 () Int)
(declare-fun it1292 () Int)
(declare-fun it1293 () Int)
(declare-fun it101 () Int)
(assert (= (+ i1 (- 1)) 0))
(assert (= (+ it1238 (- 5)) 0))
(assert (= (+ (* i2 (- 1)) it1239 (- 4)) 0))
(assert (= (+ it1240 (* i3 (- 1))) 0))
(assert (= (+ it1241 (* i4 (- 1))) 0))
(assert (= (+ (* i5 (- 1)) it1242) 0))
(assert (= (+ it1243 (* i6 (- 1))) 0))
(assert (= (+ it1244 (* i7 (- 1))) 0))
(assert (and (= (+ it1238 (- 5)) 0) (> (+ it1241 (- 2)) 0)))
(assert (= (+ it1245 (- 18)) 0))
(assert (= (+ (* it1239 (- 1)) it1246 (- 12)) 0))
(assert (= (+ (* it1240 (- 1)) it1247) 0))
(assert (= (+ (* it1241 (- 1)) it1248) 0))
(assert (= (+ it1249 (* it1242 (- 1))) 0))
(assert (= it1250 0))
(assert (= (+ (* it1244 (- 1)) it1251) 0))
(assert (and (<= (+ it1250 (* it1248 (- 1)) 2) 0) (= (+ it1245 (- 18)) 0)))
(assert (= (+ it1252 (- 20)) 0))
(assert (= (+ it1253 (* it1246 (- 1)) (- 2)) 0))
(assert (= (+ (* it1247 (- 1)) it1254) 0))
(assert (= (+ (* it1248 (- 1)) it1255) 0))
(assert (= it1256 0))
(assert (= (+ (* it1250 (- 1)) it1257) 0))
(assert (= (+ (* it1251 (- 1)) it1258) 0))
(assert (and (= (+ it1252 (- 20)) 0) (<= (+ (* it1256 2) it1257 (* it1255 (- 1)) 3) 0)))
(assert (= (+ it1259 (- 21)) 0))
(assert (= (+ (* it1253 (- 1)) it1260 (- 1)) 0))
(assert (= (+ (* it1254 (- 1)) it1261) 0))
(assert (= (+ it1262 (* it1255 (- 1))) 0))
(assert (= (+ (* it1256 (- 1)) it1263) 0))
(assert (= (+ (* it1257 (- 1)) it1264) 0))
(assert (= (+ it1265 (* it1258 (- 1))) 0))
(assert (and (= (+ (* it1262 (- 1)) (* it1263 2) it1264 3) 0) (= (+ it1259 (- 21)) 0)))
(assert (= (+ it1266 (- 26)) 0))
(assert (= (+ (* it1260 (- 1)) it1267 (- 2)) 0))
(assert (= (+ (* it1261 (- 1)) it1268) 0))
(assert (= (+ (* it1262 (- 1)) it1269) 0))
(assert (= (+ (* it1263 (- 1)) it1270) 0))
(assert (= (+ (* it1264 (- 1)) it1271) 0))
(assert (= (+ it1272 (* it1263 (- 2)) (- 1)) 0))
(assert (= (+ it1266 (- 26)) 0))
(assert (= (+ it1273 (- 20)) 0))
(assert (= (+ (* it1267 (- 1)) it1274 (- 2)) 0))
(assert (= (+ it1275 (* it1268 (- 1))) 0))
(assert (= (+ (* it1269 (- 1)) it1276) 0))
(assert (= (+ (* it1272 (- 1)) it1277) 0))
(assert (= (+ it1278 (* it1271 (- 1))) 0))
(assert (= (+ (* it1272 (- 1)) it1279) 0))
(assert (and (> (+ it1278 (* it1276 (- 1)) (* it1277 2) 3) 0) (= (+ it1273 (- 20)) 0)))
(assert (= (+ it1280 (- 18)) 0))
(assert (= (+ it1281 (* it1274 (- 1)) (- 4)) 0))
(assert (= (+ (* it1278 (- 1)) it1282 (- 1)) 0))
(assert (= (+ (* it1276 (- 1)) it1283) 0))
(assert (= (+ it1284 (* it1277 (- 1))) 0))
(assert (= (+ (* it1278 (- 1)) it1285 (- 1)) 0))
(assert (= (+ (* it1279 (- 1)) it1286) 0))
(assert (and (= (+ it1280 (- 18)) 0) (<= (+ it1285 (* it1283 (- 1)) 2) 0)))
(assert (= (+ it1287 (- 20)) 0))
(assert (= (+ (* it1281 (- 1)) it1288 (- 2)) 0))
(assert (= (+ (* it1282 (- 1)) it1289) 0))
(assert (= (+ it1290 (* it1283 (- 1))) 0))
(assert (= it1291 0))
(assert (= (+ (* it1285 (- 1)) it1292) 0))
(assert (= (+ (* it1286 (- 1)) it1293) 0))
(assert (let ((a!1 (* (* (exp 2 (+ it101 (- 1))) (+ 0 it1291)) (+ 0 (- 2))))
      (a!3 (* (* (exp 2 (+ it101 (- 1))) (+ 0 it1291)) (+ 0 2))))
(let ((a!2 (+ (+ 0 it1290)
              (* (exp 2 (+ it101 (- 1))) (+ 0 (- 2)))
              (+ 0 (* it1292 (- 1)))
              a!1
              (+ 0 (- 1))))
      (a!4 (+ (+ 0 (* it1290 (- 1)))
              (* (exp 2 (+ it101 (- 1))) (+ 0 2))
              (+ 0 it1292)
              a!3
              (+ 0 1))))
  (and (>= a!2 (+ 0 0))
       (>= (+ it1287 (- 20)) 0)
       (>= a!4 (+ 0 0))
       (>= (+ it1290 (* it1291 (- 2)) (* it1292 (- 1)) (- 3)) 0)
       (>= (+ (* it1287 (- 1)) 20) 0)
       (>= (+ (* it1290 (- 1)) (* it1291 2) it1292 3) 0)
       (>= (+ it101 (- 1)) 0)))))
(check-sat)
